NAME : netgen22-2_23
COMMENT : Generated using the function generateClusteredNetwork from the R-package netgen (Bossek,2015) - Number of clusters: 2
TYPE : TSP
DIMENSION : 22
EDGE_WEIGHT_TYPE : EUC_2D
NODE_COORD_SECTION
1 61.5566163172 97.8049420249
2 37.3052303196 89.9395027916
3 42.771853553 99.3397256279
4 36.4221228624 95.3860381825
5 47.944502771 92.7599206585
6 46.8130899198 93.6134580246
7 38.0234454243 95.1625256223
8 52.7350585713 91.1324173468
9 30.431744012 98.6597311609
10 46.7554790749 95.7010009767
11 46.1651333694 94.927181305
12 78.288328772 33.2481434632
13 83.8365663987 58.5455724303
14 69.2860605679 46.2782860638
15 69.1427116706 61.7192719143
16 89.6369557727 54.8670562004
17 71.3495966788 43.5609630223
18 65.406677495 60.0764582135
19 61.4656374524 56.3993360639
20 61.4614545451 60.7335432128
21 66.3450113911 42.1947268809
22 72.4944620738 45.5741430369
EOF
